c Sudoku solution
p cnf 729 0
143 0
152 0
175 0
229 0
255 0
282 0
291 0
368 0
428 0
436 0
464 0
566 0
267 0
571 0
584 0
611 0
659 0
686 0
692 0
789 0
815 0
856 0
898 0
188 0
678 0
931 0
881 0
954 0
351 0
169 0
121 0
441 0
542 0
558 0
412 0
761 0
996 0
116 0
726 0
137 0
194 0
314 0
244 0
346 0
276 0
238 0
213 0
753 0
862 0
965 0
795 0
645 0
663 0
457 0
597 0
519 0
627 0
634 0
839 0
847 0
748 0
949 0
717 0
918 0
824 0
923 0
732 0
774 0
972 0
873 0
987 0
322 0
335 0
525 0
533 0
479 0
377 0
383 0
399 0
485 0
493 0
